NAME : portcgen-19-6
COMMENT : portcgen N=19, seed=6
TYPE : TSP
DIMENSION : 19
EDGE_WEIGHT_TYPE : EUC_2D
NODE_COORD_SECTION
1 -85028 180299
2 72382 -155251
3 197204 11626
4 111458 243749
5 -141836 162091
6 73306 -113382
7 307886 515535
8 174785 -211605
9 -114286 -158981
10 59430 -320222
11 143599 -75999
12 -174347 120362
13 -212671 -321106
14 3695 33193
15 148858 328312
16 -113621 -29443
17 147502 -317479
18 8433 -32139
19 123348 130972
